99
183
84
92
155
146
167
158
60
122
93
135
325
171
330
242
135
115
290
75
135
57
99
150
155
152
0
224
197
90
77
369
114
82
180
176
353
269
124
146
235
142
124
119
130
141
105
129
113
88
121
92
212
192
164
336
154
180
122
75
210
185
0
56
78
119
102
130
140
119
216
329
72
132
108
230
447
209
126
107
117
130
337
108
157
167
81
82
132
127
111
113
272
94
120
247
252
110
91
143
